c random clauses
p cnf 12 16
-12 -11 -8 -7 -4 2 3 9 0
-12 -10 -9 -8 -3 1 4 11 0
-12 -10 -9 -8 -3 4 6 7 0
-12 -10 -9 -2 1 4 7 11 0
-12 -10 -7 -1 2 4 9 11 0
-11 -10 -5 -4 1 2 8 9 0
-11 -9 -8 -6 -3 1 7 12 0
-11 -9 -1 2 3 7 8 10 0
-11 -8 -4 -2 1 5 6 10 0
-11 -8 -4 -2 6 7 9 10 0
-11 -7 -5 -3 2 4 8 9 0
-10 -5 -2 -1 3 7 9 12 0
-9 -5 -4 1 2 6 10 11 0
-8 -7 -6 -5 -4 -1 2 10 0
-8 -7 1 2 3 4 5 12 0
-4 1 2 3 6 9 11 12 0
